10
-1 95 18 27 3 93 28 42 97 35
95 -1 55 34 95 79 64 67 49 64
18 55 -1 28 21 77 45 16 51 18
27 34 28 -1 15 23 90 45 5 9
3 95 21 15 -1 97 58 85 78 82
93 79 77 23 97 -1 46 92 90 97
28 64 45 90 58 46 -1 67 78 88
42 67 16 45 85 92 67 -1 76 78
97 49 51 5 78 90 78 76 -1 13
35 64 18 9 82 97 88 78 13 -1
